c This is an example DIMACS 3-sat file with 3 satisfying solutions: 1 -2 3 0, -1 -2 -3 0, 1 2 -3 0
p cnf 10 10
-1 -3 -4 0
2 -3 -4 0
1 -2 4 0
1 3 4 0
-1 2 -3 0
-5 -6 -7 0
6 -7 -8 0
8 -9 10 0
3 7 10 0
-4 6 -9 0
